103 6
10 10 10 11 12 12
1 0 0 0 0 0 0 3 2 3 4
1 0 3 0 0 0 0 2 5 8
10 3 4 2 8 9 4 4 5 6 7 8
1 0 9 0 8 0 0 1 8
6 0 9 0 0 0 0 3 9 10 11
3 3 0 0 1 0 3 2 9 10
7 4 0 0 10 0 0 3 9 11 12
2 0 0 6 0 3 9 3 9 10 11
10 10 5 2 3 10 8 3 14 15 16
7 8 7 0 0 10 0 2 14 16
8 0 0 0 1 0 0 3 13 14 15
3 0 0 0 5 0 5 1 14
5 4 10 7 0 7 3 2 17 18
8 0 7 0 4 5 3 2 18 19
4 1 5 2 8 0 2 2 18 20
8 0 0 0 0 0 1 1 17
1 0 0 0 0 2 2 3 22 23 24
9 9 6 10 0 0 5 1 21
2 8 0 0 0 0 5 1 22
2 7 0 8 9 0 8 2 22 24
4 0 1 0 10 7 9 1 27
6 0 0 6 1 4 0 3 25 27 28
1 0 0 0 0 0 0 3 26 27 28
2 9 0 0 0 0 0 3 25 26 27
6 0 8 0 0 0 8 2 30 32
6 8 0 0 0 0 0 2 29 32
1 0 0 0 0 8 8 4 29 30 31 32
8 0 0 1 0 0 1 3 30 31 32
5 9 8 8 6 0 5 1 35
3 0 0 0 0 10 7 2 34 35
2 0 2 0 3 4 0 3 33 35 36
9 3 4 0 0 0 0 1 33
10 0 0 3 0 5 6 2 37 38
2 0 0 0 1 10 0 3 38 39 40
1 0 0 0 10 3 9 3 37 38 40
6 9 7 8 5 8 4 2 39 40
2 0 0 1 0 0 7 2 41 42
8 10 0 0 0 0 6 2 41 43
6 10 0 0 0 0 0 2 41 44
6 5 0 0 0 4 0 2 41 44
7 0 1 5 0 0 0 3 46 47 48
1 0 3 0 0 0 7 2 45 46
7 8 3 0 0 5 0 2 45 47
7 0 0 3 0 0 0 2 46 47
10 3 2 3 0 7 0 3 49 51 52
9 6 6 7 8 0 3 2 49 51
1 0 2 2 0 0 0 2 49 50
8 6 6 5 5 9 7 2 50 51
7 0 3 0 0 0 4 3 53 54 55
5 0 2 3 0 9 0 2 53 55
8 2 0 0 0 0 9 2 55 56
4 0 10 1 0 5 9 3 54 55 56
4 0 0 1 6 0 8 2 58 59
4 0 9 8 0 2 0 4 57 58 59 60
3 3 4 0 8 5 3 1 60
5 0 0 7 0 2 0 2 57 60
5 0 3 0 0 4 0 3 61 63 64
6 10 0 7 0 9 8 3 61 63 64
1 0 0 7 0 9 0 2 63 64
9 0 10 4 1 10 4 2 62 64
1 0 5 7 0 3 0 2 66 67
10 10 0 0 6 10 6 1 68
3 0 0 0 4 0 0 3 65 66 68
2 5 8 0 0 0 9 2 66 68
9 0 0 0 1 0 6 3 69 70 71
8 0 8 0 1 10 6 2 70 71
1 0 3 0 8 0 0 2 69 72
5 6 0 0 6 8 0 1 72
6 0 1 0 0 0 0 2 73 75
2 0 0 6 0 0 1 3 73 74 75
5 0 0 5 0 0 10 1 73
5 0 5 0 1 7 0 2 73 76
8 2 3 1 10 0 0 1 80
4 0 0 0 0 0 0 3 77 78 80
9 0 0 7 0 7 0 1 79
1 0 4 0 3 9 7 3 78 79 80
9 0 0 10 7 0 0 3 81 82 84
6 0 2 1 0 0 8 2 82 84
7 0 0 0 0 0 10 1 82
5 0 10 0 0 0 5 1 83
1 0 2 0 8 5 0 2 85 87
3 0 5 0 7 0 3 1 85
6 0 0 0 6 9 3 2 87 88
7 1 0 5 8 6 0 1 86
1 9 0 0 0 0 2 4 89 90 91 92
8 0 0 10 0 0 0 3 90 91 92
3 0 0 2 1 1 0 2 90 92
7 0 2 0 10 0 0 2 90 92
6 9 0 4 8 0 0 2 93 95
8 0 0 0 8 5 2 3 93 94 95
5 0 2 6 1 0 3 1 94
5 0 2 0 8 0 1 2 94 96
1 0 0 0 0 0 8 2 97 98
7 8 2 0 6 0 0 2 97 98
2 7 0 0 0 0 0 1 99
7 0 0 0 0 0 0 2 99 100
1 5 0 3 8 0 4 1 102
7 0 0 8 2 8 0 1 102
8 0 0 0 6 3 0 1 102
5 5 0 0 4 2 6 1 101
8 0 0 0 8 0 7 1 103
5 10 0 0 7 2 2 1 103
0 0 0 0 0 0 0 0
